9527382465546816738191918438437291861943846287319732875343873197264384375537785626162873528462877353438765255287352888252528855255287352898846152525289425528991434528916189137913791528915288822552882285528716537553752918376194375291739173834735647382647383473826476291782653775353778535343877364352877535616287436438752619726438734387346287752625619442925644664186564556456477932561922826726735573333333332212184848484848575767585858585826729192219755824682558255826482673